% Logging successfully configured
%%%mzn-stat: initTime=0.069972471
%%%mzn-stat: objective=603
%%%mzn-stat: nodes=257
%%%mzn-stat: restarts=0
%%%mzn-stat: peakDepth=257
%%%mzn-stat: solveTime=0.000328374
%%%mzn-stat: variables=522
%%%mzn-stat: propagators=559
%%%mzn-stat: failures=0
%%%mzn-stat: propagations=1741
%%%mzn-stat: nogoods=0
%%%mzn-stat: numAtomicConstraintsPropagated=0
%%%mzn-stat: circuitNumber191PropagationsThatFoundConflict=0
%%%mzn-stat: circuitNumber191TotalFixedEdgesAtConflict=0
%%%mzn-stat: circuitNumber191NumberOfConflicts=0
%%%mzn-stat: circuitNumber191PropagationsThatPruned=0
%%%mzn-stat: circuitNumber191PropagationsTotal=18
%%%mzn-stat: AverageConflictSize=0
%%%mzn-stat: NumUnitNogoodsLearned=0
%%%mzn-stat: AverageLearnedNogoodLength=0
%%%mzn-stat: AverageBacktrackAmount=0
%%%mzn-stat: AverageLbd=0
%%%mzn-stat: 2AutonomousSearchNumBackupCalled=239
%%%mzn-stat: 2AutonomousSearchNumPredicatesRemoved=0
%%%mzn-stat: 2AutonomousSearchNumCalls=240
%%%mzn-stat: 2AutonomousSearchNumPredicatesAdded=0
%%%mzn-stat: 2AutonomousSearchAverageSizeOfHeap=0
%%%mzn-stat: 2AutonomousSearchNumAssignedPredicatesEncountered=0
%%%mzn-stat-end
maxleg = 603;
succ = array1d(1..20,[3, 5, 2, 1, 6, 7, 9, 4, 10, 12, 8, 14, 15, 18, 11, 17, 19, 16, 20, 13]);
% time elapsed: 10.21 s
----------
%%%mzn-stat: initTime=0.069972471
%%%mzn-stat: objective=548
%%%mzn-stat: nodes=491
%%%mzn-stat: restarts=0
%%%mzn-stat: peakDepth=257
%%%mzn-stat: solveTime=0.000547447
%%%mzn-stat: variables=522
%%%mzn-stat: propagators=559
%%%mzn-stat: failures=0
%%%mzn-stat: propagations=2705
%%%mzn-stat: nogoods=0
%%%mzn-stat: numAtomicConstraintsPropagated=0
%%%mzn-stat: circuitNumber191PropagationsThatFoundConflict=0
%%%mzn-stat: circuitNumber191TotalFixedEdgesAtConflict=0
%%%mzn-stat: circuitNumber191NumberOfConflicts=0
%%%mzn-stat: circuitNumber191PropagationsThatPruned=0
%%%mzn-stat: circuitNumber191PropagationsTotal=34
%%%mzn-stat: AverageConflictSize=0
%%%mzn-stat: NumUnitNogoodsLearned=0
%%%mzn-stat: AverageLearnedNogoodLength=0
%%%mzn-stat: AverageBacktrackAmount=0
%%%mzn-stat: AverageLbd=0
%%%mzn-stat: 2AutonomousSearchNumBackupCalled=456
%%%mzn-stat: 2AutonomousSearchNumPredicatesRemoved=0
%%%mzn-stat: 2AutonomousSearchNumCalls=458
%%%mzn-stat: 2AutonomousSearchNumPredicatesAdded=0
%%%mzn-stat: 2AutonomousSearchAverageSizeOfHeap=0
%%%mzn-stat: 2AutonomousSearchNumAssignedPredicatesEncountered=0
%%%mzn-stat-end
maxleg = 548;
succ = array1d(1..20,[3, 5, 2, 1, 6, 7, 9, 11, 10, 12, 4, 14, 15, 18, 17, 13, 20, 16, 8, 19]);
% time elapsed: 10.21 s
----------
%%%mzn-stat: initTime=0.069972471
%%%mzn-stat: objective=509
%%%mzn-stat: nodes=718
%%%mzn-stat: restarts=0
%%%mzn-stat: peakDepth=257
%%%mzn-stat: solveTime=0.001003804
%%%mzn-stat: variables=522
%%%mzn-stat: propagators=559
%%%mzn-stat: failures=1
%%%mzn-stat: propagations=3789
%%%mzn-stat: nogoods=1
%%%mzn-stat: numAtomicConstraintsPropagated=0
%%%mzn-stat: circuitNumber191PropagationsThatFoundConflict=1
%%%mzn-stat: circuitNumber191TotalFixedEdgesAtConflict=20
%%%mzn-stat: circuitNumber191NumberOfConflicts=1
%%%mzn-stat: circuitNumber191PropagationsThatPruned=0
%%%mzn-stat: circuitNumber191PropagationsTotal=51
%%%mzn-stat: AverageConflictSize=17
%%%mzn-stat: NumUnitNogoodsLearned=0
%%%mzn-stat: AverageLearnedNogoodLength=22
%%%mzn-stat: AverageBacktrackAmount=0
%%%mzn-stat: AverageLbd=16
%%%mzn-stat: 2AutonomousSearchNumBackupCalled=665
%%%mzn-stat: 2AutonomousSearchNumPredicatesRemoved=0
%%%mzn-stat: 2AutonomousSearchNumCalls=668
%%%mzn-stat: 2AutonomousSearchNumPredicatesAdded=60
%%%mzn-stat: 2AutonomousSearchAverageSizeOfHeap=0.08982035928143713
%%%mzn-stat: 2AutonomousSearchNumAssignedPredicatesEncountered=60
%%%mzn-stat-end
maxleg = 509;
succ = array1d(1..20,[3, 5, 2, 1, 6, 7, 9, 11, 10, 12, 4, 14, 15, 18, 19, 17, 20, 16, 8, 13]);
% time elapsed: 10.22 s
----------
%%%mzn-stat: initTime=0.069972471
%%%mzn-stat: objective=508
%%%mzn-stat: nodes=948
%%%mzn-stat: restarts=0
%%%mzn-stat: peakDepth=257
%%%mzn-stat: solveTime=0.002032823
%%%mzn-stat: variables=522
%%%mzn-stat: propagators=559
%%%mzn-stat: failures=15
%%%mzn-stat: propagations=6140
%%%mzn-stat: nogoods=15
%%%mzn-stat: numAtomicConstraintsPropagated=0
%%%mzn-stat: circuitNumber191PropagationsThatFoundConflict=2
%%%mzn-stat: circuitNumber191TotalFixedEdgesAtConflict=40
%%%mzn-stat: circuitNumber191NumberOfConflicts=2
%%%mzn-stat: circuitNumber191PropagationsThatPruned=3
%%%mzn-stat: circuitNumber191PropagationsTotal=78
%%%mzn-stat: AverageConflictSize=4
%%%mzn-stat: NumUnitNogoodsLearned=0
%%%mzn-stat: AverageLearnedNogoodLength=13.866666666666667
%%%mzn-stat: AverageBacktrackAmount=0
%%%mzn-stat: AverageLbd=6.8
%%%mzn-stat: 2AutonomousSearchNumBackupCalled=865
%%%mzn-stat: 2AutonomousSearchNumPredicatesRemoved=0
%%%mzn-stat: 2AutonomousSearchNumCalls=869
%%%mzn-stat: 2AutonomousSearchNumPredicatesAdded=214
%%%mzn-stat: 2AutonomousSearchAverageSizeOfHeap=0.24971231300345226
%%%mzn-stat: 2AutonomousSearchNumAssignedPredicatesEncountered=217
%%%mzn-stat-end
maxleg = 508;
succ = array1d(1..20,[3, 5, 2, 1, 6, 7, 9, 11, 10, 12, 4, 18, 15, 16, 19, 17, 20, 14, 8, 13]);
% time elapsed: 10.22 s
----------
%%%mzn-stat: initTime=0.069972471
%%%mzn-stat: objective=495
%%%mzn-stat: nodes=1164
%%%mzn-stat: restarts=0
%%%mzn-stat: peakDepth=257
%%%mzn-stat: solveTime=0.002285318
%%%mzn-stat: variables=522
%%%mzn-stat: propagators=559
%%%mzn-stat: failures=15
%%%mzn-stat: propagations=7130
%%%mzn-stat: nogoods=15
%%%mzn-stat: numAtomicConstraintsPropagated=0
%%%mzn-stat: circuitNumber191PropagationsThatFoundConflict=2
%%%mzn-stat: circuitNumber191TotalFixedEdgesAtConflict=40
%%%mzn-stat: circuitNumber191NumberOfConflicts=2
%%%mzn-stat: circuitNumber191PropagationsThatPruned=3
%%%mzn-stat: circuitNumber191PropagationsTotal=91
%%%mzn-stat: AverageConflictSize=4
%%%mzn-stat: NumUnitNogoodsLearned=0
%%%mzn-stat: AverageLearnedNogoodLength=13.866666666666667
%%%mzn-stat: AverageBacktrackAmount=0
%%%mzn-stat: AverageLbd=6.8
%%%mzn-stat: 2AutonomousSearchNumBackupCalled=1067
%%%mzn-stat: 2AutonomousSearchNumPredicatesRemoved=0
%%%mzn-stat: 2AutonomousSearchNumCalls=1072
%%%mzn-stat: 2AutonomousSearchNumPredicatesAdded=214
%%%mzn-stat: 2AutonomousSearchAverageSizeOfHeap=0.34888059701492535
%%%mzn-stat: 2AutonomousSearchNumAssignedPredicatesEncountered=374
%%%mzn-stat-end
maxleg = 495;
succ = array1d(1..20,[3, 5, 2, 1, 6, 7, 9, 11, 10, 14, 4, 15, 19, 18, 16, 17, 20, 12, 8, 13]);
% time elapsed: 10.22 s
----------
%%%mzn-stat: initTime=0.069972471
%%%mzn-stat: objective=465
%%%mzn-stat: nodes=1368
%%%mzn-stat: restarts=0
%%%mzn-stat: peakDepth=257
%%%mzn-stat: solveTime=0.002532082
%%%mzn-stat: variables=522
%%%mzn-stat: propagators=559
%%%mzn-stat: failures=15
%%%mzn-stat: propagations=8115
%%%mzn-stat: nogoods=15
%%%mzn-stat: numAtomicConstraintsPropagated=0
%%%mzn-stat: circuitNumber191PropagationsThatFoundConflict=2
%%%mzn-stat: circuitNumber191TotalFixedEdgesAtConflict=40
%%%mzn-stat: circuitNumber191NumberOfConflicts=2
%%%mzn-stat: circuitNumber191PropagationsThatPruned=4
%%%mzn-stat: circuitNumber191PropagationsTotal=104
%%%mzn-stat: AverageConflictSize=4
%%%mzn-stat: NumUnitNogoodsLearned=0
%%%mzn-stat: AverageLearnedNogoodLength=13.866666666666667
%%%mzn-stat: AverageBacktrackAmount=0
%%%mzn-stat: AverageLbd=6.8
%%%mzn-stat: 2AutonomousSearchNumBackupCalled=1258
%%%mzn-stat: 2AutonomousSearchNumPredicatesRemoved=0
%%%mzn-stat: 2AutonomousSearchNumCalls=1264
%%%mzn-stat: 2AutonomousSearchNumPredicatesAdded=214
%%%mzn-stat: 2AutonomousSearchAverageSizeOfHeap=0.4200949367088608
%%%mzn-stat: 2AutonomousSearchNumAssignedPredicatesEncountered=531
%%%mzn-stat-end
maxleg = 465;
succ = array1d(1..20,[3, 5, 2, 1, 6, 7, 9, 11, 10, 14, 4, 15, 20, 18, 16, 17, 13, 12, 8, 19]);
% time elapsed: 10.22 s
----------
%%%mzn-stat: initTime=0.069972471
%%%mzn-stat: objective=456
%%%mzn-stat: nodes=1553
%%%mzn-stat: restarts=0
%%%mzn-stat: peakDepth=257
%%%mzn-stat: solveTime=0.00278913
%%%mzn-stat: variables=522
%%%mzn-stat: propagators=559
%%%mzn-stat: failures=15
%%%mzn-stat: propagations=9127
%%%mzn-stat: nogoods=15
%%%mzn-stat: numAtomicConstraintsPropagated=0
%%%mzn-stat: circuitNumber191PropagationsThatFoundConflict=2
%%%mzn-stat: circuitNumber191TotalFixedEdgesAtConflict=40
%%%mzn-stat: circuitNumber191NumberOfConflicts=2
%%%mzn-stat: circuitNumber191PropagationsThatPruned=6
%%%mzn-stat: circuitNumber191PropagationsTotal=119
%%%mzn-stat: AverageConflictSize=4
%%%mzn-stat: NumUnitNogoodsLearned=0
%%%mzn-stat: AverageLearnedNogoodLength=13.866666666666667
%%%mzn-stat: AverageBacktrackAmount=0
%%%mzn-stat: AverageLbd=6.8
%%%mzn-stat: 2AutonomousSearchNumBackupCalled=1429
%%%mzn-stat: 2AutonomousSearchNumPredicatesRemoved=0
%%%mzn-stat: 2AutonomousSearchNumCalls=1436
%%%mzn-stat: 2AutonomousSearchNumPredicatesAdded=214
%%%mzn-stat: 2AutonomousSearchAverageSizeOfHeap=0.479108635097493
%%%mzn-stat: 2AutonomousSearchNumAssignedPredicatesEncountered=688
%%%mzn-stat-end
maxleg = 456;
succ = array1d(1..20,[3, 5, 2, 1, 6, 7, 9, 11, 10, 14, 4, 16, 17, 18, 13, 15, 20, 12, 8, 19]);
% time elapsed: 10.22 s
----------
%%%mzn-stat: initTime=0.069972471
%%%mzn-stat: objective=410
%%%mzn-stat: nodes=1743
%%%mzn-stat: restarts=0
%%%mzn-stat: peakDepth=257
%%%mzn-stat: solveTime=0.005207213
%%%mzn-stat: variables=522
%%%mzn-stat: propagators=559
%%%mzn-stat: failures=48
%%%mzn-stat: propagations=13985
%%%mzn-stat: nogoods=48
%%%mzn-stat: numAtomicConstraintsPropagated=0
%%%mzn-stat: circuitNumber191PropagationsThatFoundConflict=13
%%%mzn-stat: circuitNumber191TotalFixedEdgesAtConflict=224
%%%mzn-stat: circuitNumber191NumberOfConflicts=13
%%%mzn-stat: circuitNumber191PropagationsThatPruned=17
%%%mzn-stat: circuitNumber191PropagationsTotal=175
%%%mzn-stat: AverageConflictSize=6.291666666666667
%%%mzn-stat: NumUnitNogoodsLearned=0
%%%mzn-stat: AverageLearnedNogoodLength=20.0625
%%%mzn-stat: AverageBacktrackAmount=0
%%%mzn-stat: AverageLbd=7.125
%%%mzn-stat: 2AutonomousSearchNumBackupCalled=1567
%%%mzn-stat: 2AutonomousSearchNumPredicatesRemoved=0
%%%mzn-stat: 2AutonomousSearchNumCalls=1575
%%%mzn-stat: 2AutonomousSearchNumPredicatesAdded=564
%%%mzn-stat: 2AutonomousSearchAverageSizeOfHeap=0.6857142857142857
%%%mzn-stat: 2AutonomousSearchNumAssignedPredicatesEncountered=1080
%%%mzn-stat-end
maxleg = 410;
succ = array1d(1..20,[3, 5, 2, 1, 6, 7, 9, 11, 13, 16, 4, 19, 17, 18, 10, 14, 20, 12, 8, 15]);
% time elapsed: 10.22 s
----------
%%%mzn-stat: initTime=0.069972471
%%%mzn-stat: objective=406
%%%mzn-stat: nodes=1992
%%%mzn-stat: restarts=0
%%%mzn-stat: peakDepth=257
%%%mzn-stat: solveTime=0.015919249
%%%mzn-stat: variables=522
%%%mzn-stat: propagators=559
%%%mzn-stat: failures=145
%%%mzn-stat: propagations=32074
%%%mzn-stat: nogoods=145
%%%mzn-stat: numAtomicConstraintsPropagated=0
%%%mzn-stat: circuitNumber191PropagationsThatFoundConflict=33
%%%mzn-stat: circuitNumber191TotalFixedEdgesAtConflict=562
%%%mzn-stat: circuitNumber191NumberOfConflicts=33
%%%mzn-stat: circuitNumber191PropagationsThatPruned=59
%%%mzn-stat: circuitNumber191PropagationsTotal=335
%%%mzn-stat: AverageConflictSize=7.2
%%%mzn-stat: NumUnitNogoodsLearned=0
%%%mzn-stat: AverageLearnedNogoodLength=36.351724137931036
%%%mzn-stat: AverageBacktrackAmount=0
%%%mzn-stat: AverageLbd=7.910344827586207
%%%mzn-stat: 2AutonomousSearchNumBackupCalled=1705
%%%mzn-stat: 2AutonomousSearchNumPredicatesRemoved=0
%%%mzn-stat: 2AutonomousSearchNumCalls=1714
%%%mzn-stat: 2AutonomousSearchNumPredicatesAdded=1020
%%%mzn-stat: 2AutonomousSearchAverageSizeOfHeap=0.9241540256709452
%%%mzn-stat: 2AutonomousSearchNumAssignedPredicatesEncountered=1584
%%%mzn-stat-end
maxleg = 406;
succ = array1d(1..20,[3, 5, 2, 1, 6, 7, 12, 11, 13, 9, 4, 18, 17, 16, 19, 10, 20, 14, 8, 15]);
% time elapsed: 10.22 s
----------
%%%mzn-stat: initTime=0.069972471
%%%mzn-stat: objective=401
%%%mzn-stat: nodes=6477
%%%mzn-stat: restarts=0
%%%mzn-stat: peakDepth=257
%%%mzn-stat: solveTime=0.579090492
%%%mzn-stat: variables=522
%%%mzn-stat: propagators=559
%%%mzn-stat: failures=4399
%%%mzn-stat: propagations=688223
%%%mzn-stat: nogoods=4399
%%%mzn-stat: numAtomicConstraintsPropagated=0
%%%mzn-stat: circuitNumber191PropagationsThatFoundConflict=194
%%%mzn-stat: circuitNumber191TotalFixedEdgesAtConflict=3114
%%%mzn-stat: circuitNumber191NumberOfConflicts=194
%%%mzn-stat: circuitNumber191PropagationsThatPruned=1228
%%%mzn-stat: circuitNumber191PropagationsTotal=4968
%%%mzn-stat: AverageConflictSize=12.844964764719254
%%%mzn-stat: NumUnitNogoodsLearned=0
%%%mzn-stat: AverageLearnedNogoodLength=49.591952716526485
%%%mzn-stat: AverageBacktrackAmount=0
%%%mzn-stat: AverageLbd=8.035235280745624
%%%mzn-stat: 2AutonomousSearchNumBackupCalled=1844
%%%mzn-stat: 2AutonomousSearchNumPredicatesRemoved=0
%%%mzn-stat: 2AutonomousSearchNumCalls=1854
%%%mzn-stat: 2AutonomousSearchNumPredicatesAdded=1685
%%%mzn-stat: 2AutonomousSearchAverageSizeOfHeap=1.2421790722761596
%%%mzn-stat: 2AutonomousSearchNumAssignedPredicatesEncountered=2303
%%%mzn-stat-end
maxleg = 401;
succ = array1d(1..20,[3, 5, 2, 11, 6, 7, 9, 19, 10, 16, 8, 15, 4, 18, 17, 14, 20, 12, 1, 13]);
% time elapsed: 10.78 s
----------
%%%mzn-stat: initTime=0.069972471
%%%mzn-stat: objective=390
%%%mzn-stat: nodes=6641
%%%mzn-stat: restarts=0
%%%mzn-stat: peakDepth=257
%%%mzn-stat: solveTime=0.581985364
%%%mzn-stat: variables=522
%%%mzn-stat: propagators=559
%%%mzn-stat: failures=4408
%%%mzn-stat: propagations=690730
%%%mzn-stat: nogoods=4408
%%%mzn-stat: numAtomicConstraintsPropagated=0
%%%mzn-stat: circuitNumber191PropagationsThatFoundConflict=199
%%%mzn-stat: circuitNumber191TotalFixedEdgesAtConflict=3195
%%%mzn-stat: circuitNumber191NumberOfConflicts=199
%%%mzn-stat: circuitNumber191PropagationsThatPruned=1234
%%%mzn-stat: circuitNumber191PropagationsTotal=4995
%%%mzn-stat: AverageConflictSize=12.849818511796734
%%%mzn-stat: NumUnitNogoodsLearned=0
%%%mzn-stat: AverageLearnedNogoodLength=49.58461887477314
%%%mzn-stat: AverageBacktrackAmount=0
%%%mzn-stat: AverageLbd=8.035390199637023
%%%mzn-stat: 2AutonomousSearchNumBackupCalled=1988
%%%mzn-stat: 2AutonomousSearchNumPredicatesRemoved=0
%%%mzn-stat: 2AutonomousSearchNumCalls=1999
%%%mzn-stat: 2AutonomousSearchNumPredicatesAdded=2011
%%%mzn-stat: 2AutonomousSearchAverageSizeOfHeap=1.5117558779389695
%%%mzn-stat: 2AutonomousSearchNumAssignedPredicatesEncountered=3022
%%%mzn-stat-end
maxleg = 390;
succ = array1d(1..20,[3, 5, 2, 11, 6, 7, 10, 19, 13, 16, 8, 4, 17, 18, 14, 9, 20, 12, 1, 15]);
% time elapsed: 10.79 s
----------
%%%mzn-stat: initTime=0.069972471
%%%mzn-stat: objective=376
%%%mzn-stat: nodes=6796
%%%mzn-stat: restarts=0
%%%mzn-stat: peakDepth=257
%%%mzn-stat: solveTime=0.584784069
%%%mzn-stat: variables=522
%%%mzn-stat: propagators=559
%%%mzn-stat: failures=4421
%%%mzn-stat: propagations=693905
%%%mzn-stat: nogoods=4421
%%%mzn-stat: numAtomicConstraintsPropagated=0
%%%mzn-stat: circuitNumber191PropagationsThatFoundConflict=210
%%%mzn-stat: circuitNumber191TotalFixedEdgesAtConflict=3371
%%%mzn-stat: circuitNumber191NumberOfConflicts=210
%%%mzn-stat: circuitNumber191PropagationsThatPruned=1238
%%%mzn-stat: circuitNumber191PropagationsTotal=5026
%%%mzn-stat: AverageConflictSize=12.84664103144085
%%%mzn-stat: NumUnitNogoodsLearned=0
%%%mzn-stat: AverageLearnedNogoodLength=49.528613435874234
%%%mzn-stat: AverageBacktrackAmount=0
%%%mzn-stat: AverageLbd=8.031893236824247
%%%mzn-stat: 2AutonomousSearchNumBackupCalled=2118
%%%mzn-stat: 2AutonomousSearchNumPredicatesRemoved=0
%%%mzn-stat: 2AutonomousSearchNumCalls=2130
%%%mzn-stat: 2AutonomousSearchNumPredicatesAdded=2250
%%%mzn-stat: 2AutonomousSearchAverageSizeOfHeap=1.7563380281690142
%%%mzn-stat: 2AutonomousSearchNumAssignedPredicatesEncountered=3741
%%%mzn-stat-end
maxleg = 376;
succ = array1d(1..20,[3, 5, 2, 11, 18, 7, 9, 19, 10, 16, 8, 6, 4, 12, 17, 15, 20, 14, 1, 13]);
% time elapsed: 10.79 s
----------
==========
% time elapsed: 42.88 s
%%%mzn-stat: initTime=0.069972471
%%%mzn-stat: objective=376
%%%mzn-stat: nodes=96741
%%%mzn-stat: restarts=0
%%%mzn-stat: peakDepth=257
%%%mzn-stat: solveTime=32.676543338
%%%mzn-stat: variables=522
%%%mzn-stat: propagators=559
%%%mzn-stat: failures=89835
%%%mzn-stat: propagations=10664931
%%%mzn-stat: nogoods=89835
%%%mzn-stat: numAtomicConstraintsPropagated=0
%%%mzn-stat: circuitNumber191PropagationsThatFoundConflict=1745
%%%mzn-stat: circuitNumber191TotalFixedEdgesAtConflict=22744
%%%mzn-stat: circuitNumber191NumberOfConflicts=1745
%%%mzn-stat: circuitNumber191PropagationsThatPruned=12131
%%%mzn-stat: circuitNumber191PropagationsTotal=81000
%%%mzn-stat: AverageConflictSize=24.528112650971224
%%%mzn-stat: NumUnitNogoodsLearned=1
%%%mzn-stat: AverageLearnedNogoodLength=59.42867479267546
%%%mzn-stat: AverageBacktrackAmount=0
%%%mzn-stat: AverageLbd=6.640897200422998
%%%mzn-stat: 2AutonomousSearchNumBackupCalled=2118
%%%mzn-stat: 2AutonomousSearchNumPredicatesRemoved=0
%%%mzn-stat: 2AutonomousSearchNumCalls=2130
%%%mzn-stat: 2AutonomousSearchNumPredicatesAdded=3366
%%%mzn-stat: 2AutonomousSearchAverageSizeOfHeap=1.7563380281690142
%%%mzn-stat: 2AutonomousSearchNumAssignedPredicatesEncountered=3741
%%%mzn-stat-end
